(set-info :smt-lib-version 2.6)
(set-logic QF_BV)
(set-info :source |
 Patrice Godefroid, SAGE (systematic dynamic test generation)
 For more information: http://research.microsoft.com/en-us/um/people/pg/public_psfiles/ndss2008.pdf
|)
(set-info :category "industrial")
(set-info :status sat)
(declare-fun T1_122043 () (_ BitVec 8))
(declare-fun T1_122044 () (_ BitVec 8))
(declare-fun T1_122045 () (_ BitVec 8))
(declare-fun T1_122046 () (_ BitVec 8))
(declare-fun T1_122047 () (_ BitVec 8))
(declare-fun T1_122048 () (_ BitVec 8))
(declare-fun T1_122049 () (_ BitVec 8))
(declare-fun T1_122050 () (_ BitVec 8))
(declare-fun T1_122051 () (_ BitVec 8))
(declare-fun T1_122052 () (_ BitVec 8))
(assert (let ((?v_3 ((_ zero_extend 24) (_ bv1 8))) (?v_2 ((_ zero_extend 24) (_ bv2 8))) (?v_0 (bvsub ((_ zero_extend 24) T1_122043) (_ bv48 32)))) (let ((?v_1 (bvsub (bvadd ((_ zero_extend 24) T1_122044) (bvshl (bvadd ?v_0 (bvshl ?v_0 ?v_2)) ?v_3)) (_ bv48 32)))) (let ((?v_4 (bvsub (bvadd ((_ zero_extend 24) T1_122045) (bvshl (bvadd ?v_1 (bvshl ?v_1 ?v_2)) ?v_3)) (_ bv48 32)))) (let ((?v_5 (bvsub (bvadd ((_ zero_extend 24) T1_122046) (bvshl (bvadd ?v_4 (bvshl ?v_4 ?v_2)) ?v_3)) (_ bv48 32)))) (let ((?v_6 (bvsub (bvadd ((_ zero_extend 24) T1_122047) (bvshl (bvadd ?v_5 (bvshl ?v_5 ?v_2)) ?v_3)) (_ bv48 32)))) (let ((?v_7 (bvsub (bvadd ((_ zero_extend 24) T1_122048) (bvshl (bvadd ?v_6 (bvshl ?v_6 ?v_2)) ?v_3)) (_ bv48 32)))) (let ((?v_8 (bvsub (bvadd ((_ zero_extend 24) T1_122049) (bvshl (bvadd ?v_7 (bvshl ?v_7 ?v_2)) ?v_3)) (_ bv48 32)))) (let ((?v_9 (bvsub (bvadd ((_ zero_extend 24) T1_122050) (bvshl (bvadd ?v_8 (bvshl ?v_8 ?v_2)) ?v_3)) (_ bv48 32)))) (let ((?v_10 (bvsub (bvadd ((_ zero_extend 24) T1_122051) (bvshl (bvadd ?v_9 (bvshl ?v_9 ?v_2)) ?v_3)) (_ bv48 32)))) (let ((?v_11 (bvsub (bvadd ((_ zero_extend 24) T1_122052) (bvshl (bvadd ?v_10 (bvshl ?v_10 ?v_2)) ?v_3)) (_ bv48 32)))) (and true (= ?v_11 (_ bv4294967295 32)) (bvule (_ bv0 32) ?v_11)))))))))))))
(check-sat)
(exit)
